data/solutions/recovery/degenerate/intermediate/binding/degenerate_intermediate_instance21/20.sol
Elapsed time: 0.03
Upper bound: 31553728.0
Planning weighted value: 1.01804708389e+11
C[0]=31553728.0
C[1]=31368854.0
C[2]=30503833.0
C[3]=29678240.0
C[4]=28457492.0
C[5]=27460047.0
C[6]=27389098.0
C[7]=25696804.0
C[8]=24477305.0
C[9]=24413145.0
C[10]=0.0
C[11]=0.0
y[0]=8
y[1]=0
y[2]=1
y[3]=5
y[4]=4
y[5]=0
y[6]=3
y[7]=4
y[8]=8
y[9]=6
y[10]=5
y[11]=7
y[12]=3
y[13]=9
y[14]=9
y[15]=6
y[16]=0
y[17]=8
y[18]=1
y[19]=7
y[20]=3
y[21]=6
y[22]=0
y[23]=8
y[24]=6
y[25]=6
y[26]=7
y[27]=2
y[28]=7
y[29]=5
y[30]=9
y[31]=2
y[32]=6
y[33]=4
y[34]=1
y[35]=0
y[36]=3
y[37]=3
y[38]=4
y[39]=3
y[40]=7
y[41]=3
y[42]=3
y[43]=4
y[44]=5
y[45]=5
y[46]=1
y[47]=8
y[48]=6
y[49]=4
y[50]=4
y[51]=8
y[52]=3
y[53]=8
y[54]=2
y[55]=0
y[56]=1
y[57]=2
y[58]=9
y[59]=3
y[60]=7
y[61]=2
y[62]=3
y[63]=5
y[64]=9
