data/solutions/recovery/degenerate/intermediate/binding/degenerate_intermediate_instance21/20.log

Log started (V12.6.3.0) Sun Apr 22 12:28:59 2018

New value for default parallel thread count: 1

Problem '/tmp/tmp9VEjXr.pyomo.lp' read.
Read time = 0.01 sec. (0.59 ticks)

Problem name         : /tmp/tmp9VEjXr.pyomo.lp
Objective sense      : Minimize
Variables            :     794  [Nneg: 1,  Binary: 780,  General Integer: 13]
Objective nonzeros   :       1
Linear constraints   :     157  [Less: 77,  Equal: 80]
  Nonzeros           :   42446
  RHS nonzeros       :      66

Variables            : Min LB: 0.000000         Max UB: 1.000000       
Objective nonzeros   : Min   : 1.000000         Max   : 1.000000       
Linear constraints   :
  Nonzeros           : Min   : 1.000000         Max   : 8298339.       
  RHS nonzeros       : Min   : 1.000000         Max   : 1.000000       
Tried aggregator 2 times.
MIP Presolve eliminated 129 rows and 703 columns.
Aggregator did 10 substitutions.
Reduced MIP has 18 rows, 81 columns, and 170 nonzeros.
Reduced MIP has 80 binaries, 1 generals, 0 SOSs, and 0 indicators.
Presolve time = 0.00 sec. (2.83 ticks)
Found incumbent of value 6.8596469e+07 after 0.00 sec. (3.88 ticks)
Probing time = 0.00 sec. (0.08 ticks)
Tried aggregator 1 time.
Reduced MIP has 18 rows, 81 columns, and 170 nonzeros.
Reduced MIP has 80 binaries, 1 generals, 0 SOSs, and 0 indicators.
Presolve time = 0.00 sec. (0.12 ticks)
Probing time = 0.00 sec. (0.08 ticks)
Clique table members: 8.
MIP emphasis: balance optimality and feasibility.
MIP search method: dynamic search.
Parallel mode: none, using 1 thread.
Root relaxation solution time = 0.00 sec. (0.08 ticks)

        Nodes                                         Cuts/
   Node  Left     Objective  IInf  Best Integer    Best Bound    ItCnt     Gap

*     0+    0                       6.85965e+07   2.96782e+07            56.74%
      0     0   2.96782e+07    11   6.85965e+07   2.96782e+07       18   56.74%
*     0+    0                       3.24826e+07   2.96782e+07             8.63%
      0     0   2.96782e+07    11   3.24826e+07       Cuts: 5       38    8.63%
*     0+    0                       3.22401e+07   2.96782e+07             7.95%
      0     0   2.99638e+07    18   3.22401e+07       Cuts: 7       67    7.06%
*     0+    0                       3.21962e+07   2.99638e+07             6.93%
      0     0   2.99663e+07    20   3.21962e+07       Cuts: 2       69    6.93%
*     0+    0                       3.21023e+07   2.99663e+07             6.65%
*     0+    0                       3.18827e+07   2.99663e+07             6.01%

Repeating presolve.
Tried aggregator 1 time.
MIP Presolve eliminated 0 rows and 24 columns.
MIP Presolve modified 9 coefficients.
Reduced MIP has 18 rows, 57 columns, and 122 nonzeros.
Reduced MIP has 56 binaries, 1 generals, 0 SOSs, and 0 indicators.
Presolve time = 0.00 sec. (0.13 ticks)
Probing time = 0.00 sec. (0.07 ticks)
Tried aggregator 1 time.
Reduced MIP has 18 rows, 57 columns, and 122 nonzeros.
Reduced MIP has 56 binaries, 1 generals, 0 SOSs, and 0 indicators.
Presolve time = 0.00 sec. (0.08 ticks)
Represolve time = 0.00 sec. (0.41 ticks)
Probing time = 0.00 sec. (0.07 ticks)
Clique table members: 23.
MIP emphasis: balance optimality and feasibility.
MIP search method: dynamic search.
Parallel mode: none, using 1 thread.
Root relaxation solution time = 0.00 sec. (0.16 ticks)

        Nodes                                         Cuts/
   Node  Left     Objective  IInf  Best Integer    Best Bound    ItCnt     Gap

*     0+    0                       3.18827e+07   2.99663e+07             6.01%
      0     0   2.99703e+07    17   3.18827e+07   2.99703e+07       94    6.00%
*     0+    0                       3.17030e+07   2.99703e+07             5.47%
      0     0   3.02721e+07    19   3.17030e+07       Cuts: 4      115    4.51%
*     0+    0                       3.15537e+07   3.02721e+07             4.06%
      0     0        cutoff         3.15537e+07                    120    0.00%
Elapsed time = 0.01 sec. (6.99 ticks, tree = 0.01 MB, solutions = 8)

Clique cuts applied:  3
Mixed integer rounding cuts applied:  1
Gomory fractional cuts applied:  5

Root node processing (before b&c):
  Real time             =    0.01 sec. (7.05 ticks)
Sequential b&c:
  Real time             =    0.00 sec. (0.00 ticks)
                          ------------
Total (root+branch&cut) =    0.01 sec. (7.05 ticks)

Solution pool: 8 solutions saved.

MIP - Integer optimal solution:  Objective =  3.1553728000e+07
Solution time =    0.01 sec.  Iterations = 120  Nodes = 0
Deterministic time = 7.05 ticks  (696.48 ticks/sec)


Incumbent solution written to file '/tmp/tmpmgMnXe.cplex.sol'.
